DIR: 0.2620146314439963, EFF: 0.4392977276858791, INT: 0.010344181452095598, OBJ: 0.288343459418029
original problem has 2013 variables (1464 bin, 183 int, 0 impl, 366 cont) and 233 constraints
1/1 feasible solution given by solution candidate storage, new primal bound 3.311180e+03

presolving:
   (0.0s) running MILP presolver
   (0.0s) MILP presolver found nothing
   (0.0s) probing: 51/1464 (3.5%) - 0 fixings, 0 aggregations, 0 implications, 0 bound changes
   (0.0s) probing aborted: 50/50 successive totally useless probings
presolving (1 rounds: 1 fast, 1 medium, 1 exhaustive):
 0 deleted vars, 0 deleted constraints, 0 added constraints, 549 tightened bounds, 0 added holes, 0 changed sides, 0 changed coefficients
 0 implications, 0 cliques
presolved problem has 2013 variables (1464 bin, 183 int, 0 impl, 366 cont) and 233 constraints
    233 constraints of type <linear>
Presolving Time: 0.03
transformed 1/1 original solutions to the transformed problem space

 time | node  | left  |LP iter|LP it/n|mem/heur|mdpt |vars |cons |rows |cuts |sepa|confs|strbr|  dualbound   | primalbound  |  gap   | compl. 
  0.1s|     1 |     0 |   270 |     - |  8240k |   0 |2013 | 233 | 233 |   0 |  0 |   0 |   0 | 2.879066e+03 | 3.311180e+03 |  15.01%| unknown
Computing relative interior point (time limit: 1e+20, iter limit: 2700) ...
  0.6s|     1 |     0 |   297 |     - |    11M |   0 |2013 | 233 | 243 |  10 |  1 |   0 |   0 | 2.939255e+03 | 3.311180e+03 |  12.65%| unknown
  0.6s|     1 |     0 |   334 |     - |    12M |   0 |2013 | 233 | 253 |  20 |  2 |   0 |   0 | 3.000432e+03 | 3.311180e+03 |  10.36%| unknown
  0.6s|     1 |     0 |   347 |     - |    13M |   0 |2013 | 233 | 263 |  30 |  3 |   0 |   0 | 3.043172e+03 | 3.311180e+03 |   8.81%| unknown
  0.7s|     1 |     0 |   368 |     - |    13M |   0 |2013 | 233 | 273 |  40 |  4 |   0 |   0 | 3.058307e+03 | 3.311180e+03 |   8.27%| unknown
  0.7s|     1 |     0 |   387 |     - |    15M |   0 |2013 | 233 | 283 |  50 |  5 |   0 |   0 | 3.078909e+03 | 3.311180e+03 |   7.54%| unknown
  0.8s|     1 |     0 |   422 |     - |    15M |   0 |2013 | 233 | 293 |  60 |  6 |   0 |   0 | 3.089983e+03 | 3.311180e+03 |   7.16%| unknown
  0.9s|     1 |     0 |   513 |     - |    16M |   0 |2013 | 233 | 303 |  70 |  7 |   0 |   0 | 3.106053e+03 | 3.311180e+03 |   6.60%| unknown
  1.0s|     1 |     0 |   555 |     - |    18M |   0 |2013 | 233 | 313 |  80 |  8 |   0 |   0 | 3.123378e+03 | 3.311180e+03 |   6.01%| unknown
  1.1s|     1 |     0 |   597 |     - |    19M |   0 |2013 | 233 | 323 |  90 |  9 |   0 |   0 | 3.132729e+03 | 3.311180e+03 |   5.70%| unknown
  1.2s|     1 |     0 |   656 |     - |    20M |   0 |2013 | 233 | 333 | 100 | 10 |   0 |   0 | 3.137169e+03 | 3.311180e+03 |   5.55%| unknown
  1.4s|     1 |     0 |   714 |     - |    21M |   0 |2013 | 233 | 343 | 110 | 11 |   0 |   0 | 3.143407e+03 | 3.311180e+03 |   5.34%| unknown
  1.5s|     1 |     0 |   763 |     - |    22M |   0 |2013 | 233 | 353 | 120 | 12 |   0 |   0 | 3.146982e+03 | 3.311180e+03 |   5.22%| unknown
  1.7s|     1 |     0 |   817 |     - |    23M |   0 |2013 | 233 | 363 | 130 | 13 |   0 |   0 | 3.150300e+03 | 3.311180e+03 |   5.11%| unknown
  1.9s|     1 |     0 |   870 |     - |    24M |   0 |2013 | 233 | 373 | 140 | 14 |   0 |   0 | 3.153011e+03 | 3.311180e+03 |   5.02%| unknown
 time | node  | left  |LP iter|LP it/n|mem/heur|mdpt |vars |cons |rows |cuts |sepa|confs|strbr|  dualbound   | primalbound  |  gap   | compl. 
  2.1s|     1 |     0 |   911 |     - |    25M |   0 |2013 | 233 | 383 | 150 | 15 |   0 |   0 | 3.158242e+03 | 3.311180e+03 |   4.84%| unknown
  2.3s|     1 |     0 |   991 |     - |    26M |   0 |2013 | 233 | 393 | 160 | 16 |   0 |   0 | 3.161906e+03 | 3.311180e+03 |   4.72%| unknown
  2.5s|     1 |     0 |  1034 |     - |    26M |   0 |2013 | 233 | 392 | 170 | 17 |   0 |   0 | 3.164630e+03 | 3.311180e+03 |   4.63%| unknown
  2.8s|     1 |     0 |  1206 |     - |    28M |   0 |2013 | 233 | 402 | 180 | 18 |   0 |   0 | 3.172812e+03 | 3.311180e+03 |   4.36%| unknown
  3.1s|     1 |     0 |  1263 |     - |    28M |   0 |2013 | 233 | 412 | 190 | 19 |   0 |   0 | 3.173859e+03 | 3.311180e+03 |   4.33%| unknown
  3.4s|     1 |     0 |  1335 |     - |    29M |   0 |2013 | 233 | 422 | 200 | 20 |   0 |   0 | 3.175743e+03 | 3.311180e+03 |   4.26%| unknown
  3.7s|     1 |     0 |  1382 |     - |    29M |   0 |2013 | 233 | 432 | 210 | 21 |   0 |   0 | 3.178653e+03 | 3.311180e+03 |   4.17%| unknown
  4.0s|     1 |     0 |  1468 |     - |    30M |   0 |2013 | 233 | 442 | 220 | 22 |   0 |   0 | 3.180992e+03 | 3.311180e+03 |   4.09%| unknown
  4.3s|     1 |     0 |  1510 |     - |    30M |   0 |2013 | 233 | 421 | 230 | 23 |   0 |   0 | 3.182067e+03 | 3.311180e+03 |   4.06%| unknown
  4.6s|     1 |     0 |  1562 |     - |    30M |   0 |2013 | 233 | 431 | 240 | 24 |   0 |   0 | 3.183471e+03 | 3.311180e+03 |   4.01%| unknown
  5.0s|     1 |     0 |  1601 |     - |    30M |   0 |2013 | 233 | 441 | 250 | 25 |   0 |   0 | 3.184456e+03 | 3.311180e+03 |   3.98%| unknown
  5.3s|     1 |     0 |  1640 |     - |    31M |   0 |2013 | 233 | 451 | 260 | 26 |   0 |   0 | 3.185626e+03 | 3.311180e+03 |   3.94%| unknown
  5.7s|     1 |     0 |  1735 |     - |    32M |   0 |2013 | 233 | 461 | 270 | 27 |   0 |   0 | 3.188772e+03 | 3.311180e+03 |   3.84%| unknown
  6.1s|     1 |     0 |  1844 |     - |    32M |   0 |2013 | 233 | 471 | 280 | 28 |   0 |   0 | 3.191617e+03 | 3.311180e+03 |   3.75%| unknown
  6.5s|     1 |     0 |  1883 |     - |    33M |   0 |2013 | 233 | 441 | 290 | 29 |   0 |   0 | 3.192605e+03 | 3.311180e+03 |   3.71%| unknown
 time | node  | left  |LP iter|LP it/n|mem/heur|mdpt |vars |cons |rows |cuts |sepa|confs|strbr|  dualbound   | primalbound  |  gap   | compl. 
  6.9s|     1 |     0 |  1957 |     - |    33M |   0 |2013 | 233 | 451 | 300 | 30 |   0 |   0 | 3.194132e+03 | 3.311180e+03 |   3.66%| unknown
  7.3s|     1 |     0 |  2001 |     - |    33M |   0 |2013 | 233 | 461 | 310 | 31 |   0 |   0 | 3.194862e+03 | 3.311180e+03 |   3.64%| unknown
  7.7s|     1 |     0 |  2060 |     - |    33M |   0 |2013 | 233 | 471 | 320 | 32 |   0 |   0 | 3.195670e+03 | 3.311180e+03 |   3.61%| unknown
  8.3s|     1 |     0 |  2151 |     - |    34M |   0 |2013 | 233 | 481 | 330 | 33 |   0 |   0 | 3.196053e+03 | 3.311180e+03 |   3.60%| unknown
  8.8s|     1 |     0 |  2256 |     - |    36M |   0 |2013 | 233 | 491 | 340 | 34 |   0 |   0 | 3.197039e+03 | 3.311180e+03 |   3.57%| unknown
  9.3s|     1 |     0 |  2347 |     - |    36M |   0 |2013 | 233 | 467 | 350 | 35 |   0 |   0 | 3.198193e+03 | 3.311180e+03 |   3.53%| unknown
  9.6s|     1 |     0 |  2401 |     - |    36M |   0 |2013 | 233 | 477 | 360 | 36 |   0 |   0 | 3.198544e+03 | 3.311180e+03 |   3.52%| unknown
 10.1s|     1 |     0 |  2515 |     - |    36M |   0 |2013 | 233 | 487 | 370 | 37 |   0 |   0 | 3.199141e+03 | 3.311180e+03 |   3.50%| unknown
 10.6s|     1 |     0 |  2598 |     - |    37M |   0 |2013 | 233 | 497 | 380 | 38 |   0 |   0 | 3.199542e+03 | 3.311180e+03 |   3.49%| unknown
 11.4s|     1 |     0 |  2658 |     - |    37M |   0 |2013 | 233 | 507 | 390 | 39 |   0 |   0 | 3.199866e+03 | 3.311180e+03 |   3.48%| unknown
 12.0s|     1 |     0 |  2729 |     - |    38M |   0 |2013 | 233 | 517 | 400 | 40 |   0 |   0 | 3.200719e+03 | 3.311180e+03 |   3.45%| unknown
 12.6s|     1 |     0 |  2796 |     - |    38M |   0 |2013 | 233 | 478 | 410 | 41 |   0 |   0 | 3.201149e+03 | 3.311180e+03 |   3.44%| unknown
 13.3s|     1 |     0 |  2893 |     - |    39M |   0 |2013 | 233 | 488 | 420 | 42 |   0 |   0 | 3.201706e+03 | 3.311180e+03 |   3.42%| unknown
 13.9s|     1 |     0 |  2994 |     - |    39M |   0 |2013 | 233 | 498 | 430 | 43 |   0 |   0 | 3.202289e+03 | 3.311180e+03 |   3.40%| unknown
 14.6s|     1 |     0 |  3040 |     - |    39M |   0 |2013 | 233 | 508 | 440 | 44 |   0 |   0 | 3.202785e+03 | 3.311180e+03 |   3.38%| unknown
 time | node  | left  |LP iter|LP it/n|mem/heur|mdpt |vars |cons |rows |cuts |sepa|confs|strbr|  dualbound   | primalbound  |  gap   | compl. 
 15.3s|     1 |     0 |  3134 |     - |    40M |   0 |2013 | 233 | 518 | 450 | 45 |   0 |   0 | 3.203394e+03 | 3.311180e+03 |   3.36%| unknown
 16.0s|     1 |     0 |  3197 |     - |    40M |   0 |2013 | 233 | 528 | 460 | 46 |   0 |   0 | 3.203697e+03 | 3.311180e+03 |   3.35%| unknown
 16.9s|     1 |     0 |  3297 |     - |    40M |   0 |2013 | 233 | 483 | 470 | 47 |   0 |   0 | 3.204093e+03 | 3.311180e+03 |   3.34%| unknown
 17.7s|     1 |     0 |  3389 |     - |    40M |   0 |2013 | 233 | 493 | 480 | 48 |   0 |   0 | 3.204676e+03 | 3.311180e+03 |   3.32%| unknown
 18.4s|     1 |     0 |  3523 |     - |    41M |   0 |2013 | 233 | 503 | 490 | 49 |   0 |   0 | 3.205227e+03 | 3.311180e+03 |   3.31%| unknown
 18.6s|     1 |     0 |  3830 |     - |    41M |   0 |2013 | 233 | 513 | 500 | 50 |   0 |   0 | 3.211066e+03 | 3.311180e+03 |   3.12%| unknown
 18.6s|     1 |     0 |  3909 |     - |    41M |   0 |2013 | 233 | 523 | 510 | 51 |   0 |   0 | 3.211846e+03 | 3.311180e+03 |   3.09%| unknown
 18.6s|     1 |     2 |  3909 |     - |    41M |   0 |2013 | 233 | 523 | 510 | 51 |   0 |   0 | 3.211846e+03 | 3.311180e+03 |   3.09%| unknown

SCIP Status        : solving was interrupted [node limit reached]
Solving Time (sec) : 18.59
Solving Nodes      : 1
Primal Bound       : +3.31117998412251e+03 (1 solutions)
Dual Bound         : +3.21184614727040e+03
Gap                : 3.09 %
